data;


param d:= 100;
param r:=5;
param p:=0.200000;
param M:=1000;
param U:=
         1         1       -3.405616e-01
         2         1       -2.996565e-01
         3         1        7.319456e-01
         4         1        1.118408e-01
         5         1       -1.039330e+00
         6         1       -2.676282e+00
         7         1        3.349983e-02
         8         1        4.546232e-01
         9         1        2.236580e-01
        10         1        6.979179e-01
        11         1        2.176445e+00
        12         1       -1.248128e+00
        13         1        1.377407e-01
        14         1       -9.268277e-01
        15         1       -3.039313e-01
        16         1        4.201197e-01
        17         1       -5.308296e-01
        18         1        1.009062e+00
        19         1       -2.750720e-02
        20         1        8.246959e-01
        21         1       -1.038114e+00
        22         1       -2.711126e-01
        23         1        6.076286e-01
        24         1       -9.785432e-01
        25         1        9.641058e-01
        26         1        1.379341e-01
        27         1        1.440903e-01
        28         1        1.100722e-01
        29         1       -2.491092e-01
        30         1       -6.120792e-01
        31         1        7.500984e-01
        32         1        3.154004e-01
        33         1       -4.330773e-01
        34         1        1.174831e+00
        35         1       -1.081856e+00
        36         1        9.221881e-01
        37         1       -8.842564e-01
        38         1        1.321883e-01
        39         1        1.303259e+00
        40         1       -5.940385e-02
        41         1        1.706791e+00
        42         1        1.795282e+00
        43         1       -1.577284e-01
        44         1       -5.133275e-01
        45         1        2.484709e-01
        46         1        1.892559e-01
        47         1        4.203173e-01
        48         1       -5.190593e-01
        49         1       -2.550702e-01
        50         1        2.925336e-01
        51         1        5.710894e-01
        52         1        5.596673e-01
        53         1       -1.565490e+00
        54         1        2.330040e+00
        55         1       -8.896816e-02
        56         1       -1.139003e-01
        57         1       -2.086294e-01
        58         1        1.019331e+00
        59         1       -1.374324e+00
        60         1       -1.241554e+00
        61         1        7.882282e-01
        62         1        1.740393e+00
        63         1       -9.561267e-01
        64         1       -1.432434e-01
        65         1       -7.430373e-01
        66         1       -6.161311e-01
        67         1       -1.716087e+00
        68         1       -1.322406e+00
        69         1       -7.744271e-01
        70         1        1.539467e+00
        71         1       -2.192150e-01
        72         1       -3.476775e-01
        73         1       -7.911392e-01
        74         1       -6.094427e-01
        75         1        3.687542e-01
        76         1       -1.055604e+00
        77         1        1.948708e-01
        78         1        1.155047e+00
        79         1       -1.803121e-01
        80         1        1.270952e-01
        81         1       -6.784559e-01
        82         1       -1.606417e+00
        83         1        1.134750e-01
        84         1       -1.314871e+00
        85         1        1.344357e-01
        86         1       -2.057684e-01
        87         1        1.162843e+00
        88         1        9.632691e-02
        89         1       -8.580282e-01
        90         1        1.281977e+00
        91         1       -2.155652e+00
        92         1        8.047758e-01
        93         1        8.852356e-01
        94         1       -4.905082e-02
        95         1       -2.735186e+00
        96         1       -3.356585e-02
        97         1       -1.784027e+00
        98         1       -1.096098e+00
        99         1       -3.875362e-01
       100         1        1.257638e+00
         1         2        1.195923e+00
         2         2        2.509719e+00
         3         2       -2.569755e-02
         4         2        5.765902e-01
         5         2       -1.420741e+00
         6         2       -8.179188e-01
         7         2       -1.542409e-01
         8         2        9.514873e-02
         9         2        9.993981e-01
        10         2        1.619733e+00
        11         2       -8.965871e-01
        12         2       -1.563948e+00
        13         2       -1.271997e+00
        14         2       -1.411526e+00
        15         2       -4.024414e-01
        16         2        3.138817e-01
        17         2        1.503892e-01
        18         2        1.036938e+00
        19         2       -1.081525e+00
        20         2       -2.518303e-01
        21         2        9.471623e-01
        22         2       -4.264733e-01
        23         2       -1.012019e+00
        24         2       -1.370294e+00
        25         2       -7.375906e-01
        26         2        3.989639e-01
        27         2       -2.335872e+00
        28         2       -1.259660e-01
        29         2       -2.463952e+00
        30         2       -1.613250e-01
        31         2        8.241529e-01
        32         2       -3.883486e-02
        33         2        2.918329e-01
        34         2        1.114186e+00
        35         2       -1.539295e+00
        36         2        4.045644e-01
        37         2        4.691194e-01
        38         2       -1.314155e-01
        39         2       -5.803646e-01
        40         2        7.007166e-01
        41         2        1.318087e+00
        42         2        4.831141e-01
        43         2       -9.277862e-01
        44         2        1.877334e-01
        45         2       -1.091985e-01
        46         2        3.109375e+00
        47         2       -2.427736e-01
        48         2        7.418143e-01
        49         2        6.840782e-01
        50         2       -8.952867e-01
        51         2        6.826129e-01
        52         2       -1.884575e-01
        53         2       -5.234076e-01
        54         2       -5.760158e-01
        55         2       -1.984748e+00
        56         2        3.999972e-01
        57         2       -5.157887e-01
        58         2        1.959594e+00
        59         2       -3.090985e-01
        60         2        6.838017e-02
        61         2       -8.039303e-01
        62         2        4.928149e-01
        63         2        2.460534e-01
        64         2        1.792815e+00
        65         2        1.687674e+00
        66         2        1.665983e+00
        67         2       -6.829445e-01
        68         2        4.253163e-01
        69         2       -6.407962e-01
        70         2        4.734979e-02
        71         2        4.461750e-01
        72         2        8.393407e-01
        73         2        7.432753e-01
        74         2        3.831220e-01
        75         2       -3.674089e-01
        76         2        1.887214e-01
        77         2        2.750258e-01
        78         2        9.509796e-02
        79         2        3.632434e-01
        80         2       -6.163901e-01
        81         2        1.394929e-01
        82         2        9.387577e-01
        83         2       -1.618445e-01
        84         2       -3.602852e-01
        85         2        1.130405e+00
        86         2        8.694513e-01
        87         2        7.825426e-03
        88         2        2.576657e+00
        89         2        1.317329e+00
        90         2        7.360554e-01
        91         2        1.303079e+00
        92         2       -4.369741e-01
        93         2        7.327611e-01
        94         2       -2.508975e+00
        95         2        1.229896e+00
        96         2       -6.414824e-02
        97         2        9.706910e-01
        98         2       -1.598193e+00
        99         2        5.310931e-01
       100         2       -1.301403e-01
         1         3        1.211973e-02
         2         3        7.218510e-01
         3         3        3.963205e-01
         4         3       -1.137689e+00
         5         3        1.229682e+00
         6         3       -8.446831e-01
         7         3        1.012919e+00
         8         3       -1.314027e+00
         9         3       -1.079986e+00
        10         3        2.110226e-01
        11         3        3.406545e-01
        12         3        3.110367e-01
        13         3        5.741958e-02
        14         3       -8.001721e-01
        15         3       -1.763318e+00
        16         3       -1.171978e+00
        17         3       -1.004458e-01
        18         3       -1.666266e+00
        19         3       -1.813454e+00
        20         3        2.806936e-02
        21         3       -3.983385e-01
        22         3        8.121556e-01
        23         3        3.379684e-01
        24         3        2.149439e-01
        25         3       -1.482904e-01
        26         3        2.110892e-02
        27         3        1.715688e-01
        28         3       -1.138038e+00
        29         3        3.250184e-01
        30         3       -1.267887e-01
        31         3        5.416744e-01
        32         3        2.229746e-02
        33         3        1.704379e+00
        34         3        5.394934e-01
        35         3        1.867730e-01
        36         3       -9.049830e-01
        37         3       -2.183633e-01
        38         3        8.698033e-01
        39         3       -1.770625e-01
        40         3       -6.360549e-01
        41         3       -7.083561e-01
        42         3       -2.692687e-01
        43         3       -8.934856e-01
        44         3        8.289505e-01
        45         3        2.591509e-02
        46         3        1.459425e+00
        47         3       -2.655622e-01
        48         3        2.589576e-01
        49         3        2.364098e-02
        50         3        3.287604e-01
        51         3        8.955882e-01
        52         3        1.129099e+00
        53         3        8.307902e-01
        54         3       -9.384937e-02
        55         3        8.394201e-01
        56         3       -2.865049e-01
        57         3       -5.615324e-01
        58         3       -9.893141e-01
        59         3        1.016240e+00
        60         3       -1.600106e-01
        61         3        8.986507e-01
        62         3       -5.338906e-03
        63         3        1.254036e+00
        64         3        1.302178e+00
        65         3       -3.613470e-01
        66         3       -8.562724e-01
        67         3       -7.905992e-01
        68         3       -1.107065e+00
        69         3        9.717667e-01
        70         3        1.186587e+00
        71         3        6.925461e-01
        72         3        2.769296e-02
        73         3        4.536158e-01
        74         3        5.244235e-01
        75         3        6.680895e-01
        76         3        4.024748e-01
        77         3        1.972645e-01
        78         3        3.810777e-01
        79         3       -1.027208e-01
        80         3        1.684780e+00
        81         3       -1.982230e-01
        82         3        1.026644e+00
        83         3        4.030388e-01
        84         3        9.438899e-01
        85         3       -2.376125e+00
        86         3       -5.033374e-01
        87         3       -8.241718e-01
        88         3       -8.688337e-01
        89         3       -1.748028e+00
        90         3        1.404517e+00
        91         3        5.812515e-01
        92         3       -1.506549e+00
        93         3        3.043627e-01
        94         3        3.706053e-01
        95         3        1.035468e+00
        96         3       -1.631593e+00
        97         3        1.286710e-01
        98         3       -1.612178e+00
        99         3       -1.125665e+00
       100         3        2.159052e+00
         1         4       -3.118163e+00
         2         4        5.331973e-01
         3         4        9.127742e-02
         4         4       -1.118243e+00
         5         4       -1.415690e+00
         6         4        6.754064e-01
         7         4        3.707137e-02
         8         4        1.111350e+00
         9         4        2.639619e-01
        10         4       -9.519314e-01
        11         4       -2.092165e-01
        12         4       -3.628899e-01
        13         4       -5.270674e-01
        14         4        1.707518e-01
        15         4        9.027602e-01
        16         4       -1.248645e+00
        17         4        5.494972e-01
        18         4        7.513534e-01
        19         4        8.794510e-01
        20         4       -6.194034e-01
        21         4       -5.685295e-01
        22         4        1.850773e-01
        23         4        1.770027e+00
        24         4        4.432565e-01
        25         4        1.877286e+00
        26         4        4.738316e-01
        27         4        1.466892e-01
        28         4        3.766028e-01
        29         4       -1.513415e-01
        30         4        6.528843e-03
        31         4        1.175054e-01
        32         4        9.537103e-01
        33         4       -2.203661e-01
        34         4        6.687685e-01
        35         4        1.142728e-01
        36         4        6.715011e-01
        37         4       -1.322656e+00
        38         4        8.569830e-01
        39         4       -4.912830e-01
        40         4       -1.507108e+00
        41         4       -7.976532e-01
        42         4       -5.251712e-01
        43         4        4.311678e-02
        44         4        8.182591e-02
        45         4        2.033275e+00
        46         4       -1.156077e+00
        47         4       -3.111901e-01
        48         4       -1.277030e-01
        49         4       -4.964078e-01
        50         4       -9.031031e-01
        51         4       -1.090768e+00
        52         4       -6.609938e-03
        53         4        1.356736e+00
        54         4        2.987657e+00
        55         4        5.170396e-01
        56         4       -1.408620e-01
        57         4       -1.397876e+00
        58         4        5.697811e-01
        59         4        1.517256e+00
        60         4        1.164909e+00
        61         4       -7.601988e-01
        62         4       -2.991197e-01
        63         4        4.136998e-01
        64         4       -8.557575e-01
        65         4        7.359730e-01
        66         4       -1.315120e+00
        67         4       -9.157503e-01
        68         4       -1.262435e+00
        69         4       -1.436804e+00
        70         4       -4.812779e-01
        71         4        6.499505e-01
        72         4        5.372362e-01
        73         4        3.462798e-01
        74         4       -1.350209e+00
        75         4       -1.818429e-01
        76         4        1.592960e+00
        77         4       -9.976946e-01
        78         4        7.507741e-01
        79         4        1.298248e+00
        80         4       -6.558266e-02
        81         4        5.129076e-01
        82         4        2.079998e+00
        83         4        1.245531e+00
        84         4       -1.389194e+00
        85         4        1.546483e-02
        86         4       -1.920632e-01
        87         4       -6.507630e-01
        88         4       -1.604239e+00
        89         4        6.410931e-01
        90         4        5.262991e-01
        91         4        1.112896e-02
        92         4        2.204971e+00
        93         4        2.214268e+00
        94         4        6.380362e-01
        95         4        3.564715e-01
        96         4       -2.681657e-01
        97         4       -6.153070e-01
        98         4       -7.450104e-01
        99         4        1.601983e-01
       100         4       -1.242373e-01
         1         5        3.343178e-01
         2         5        2.148327e-01
         3         5        5.240912e-01
         4         5        3.231888e-01
         5         5        7.198631e-01
         6         5        5.023018e-01
         7         5       -5.108897e-01
         8         5        4.251965e-01
         9         5        3.812143e-02
        10         5        7.920852e-01
        11         5       -8.150160e-01
        12         5        1.221687e+00
        13         5        2.612083e+00
        14         5       -2.312937e-01
        15         5       -1.780938e+00
        16         5       -2.315736e-01
        17         5        7.678821e-01
        18         5        6.640078e-01
        19         5       -7.355591e-01
        20         5       -5.663998e-01
        21         5        7.585798e-01
        22         5       -4.781215e-01
        23         5       -7.161039e-02
        24         5        6.419862e-01
        25         5        7.091608e-01
        26         5        1.481483e+00
        27         5        2.520934e+00
        28         5        8.573773e-01
        29         5        9.341743e-01
        30         5        1.221113e-01
        31         5       -1.098615e+00
        32         5       -2.398785e-01
        33         5        2.157189e-01
        34         5       -7.171643e-03
        35         5       -1.292210e+00
        36         5       -1.274383e-01
        37         5       -1.197697e+00
        38         5       -1.410604e-01
        39         5        8.389413e-03
        40         5        1.307024e+00
        41         5       -3.849392e-01
        42         5       -1.099743e+00
        43         5       -1.554881e+00
        44         5       -1.541195e+00
        45         5       -5.010665e-01
        46         5        8.416638e-01
        47         5        1.991464e+00
        48         5       -1.098068e-01
        49         5        4.267205e-01
        50         5        5.382473e-01
        51         5       -5.024968e-01
        52         5        7.302236e-01
        53         5       -7.455872e-01
        54         5        2.797043e-03
        55         5       -3.617967e-01
        56         5        6.086575e-01
        57         5        5.608714e-01
        58         5        6.978897e-01
        59         5        5.629331e-01
        60         5        9.805370e-01
        61         5       -6.257672e-01
        62         5       -6.519181e-01
        63         5       -7.749972e-01
        64         5       -1.635317e-01
        65         5        7.244721e-03
        66         5       -9.872268e-01
        67         5       -8.709638e-01
        68         5       -4.872609e-01
        69         5       -1.266320e+00
        70         5        3.159765e-01
        71         5        4.107616e-01
        72         5       -9.069201e-01
        73         5        5.063694e-01
        74         5        9.932557e-02
        75         5       -1.590314e+00
        76         5        3.359667e-01
        77         5       -5.136090e-01
        78         5        5.370167e-01
        79         5        1.987895e-01
        80         5        2.379987e+00
        81         5       -2.960344e-01
        82         5        2.324168e+00
        83         5        7.387721e-01
        84         5        3.086760e+00
        85         5        6.250472e-01
        86         5       -1.942368e-01
        87         5       -9.599844e-01
        88         5       -1.026833e+00
        89         5       -1.074576e+00
        90         5       -6.577914e-01
        91         5       -1.419404e+00
        92         5       -2.426055e+00
        93         5        3.052114e-01
        94         5       -1.186713e+00
        95         5       -1.015504e+00
        96         5        8.429235e-01
        97         5       -5.272104e-01
        98         5        1.644970e+00
        99         5       -1.427639e-01
       100         5       -1.250126e+00
;

param theta:=
    1        1.662973e+00
    2       -1.140157e+00
    3        1.632391e-01
    4       -1.347109e+00
    5       -2.007784e-01
;
param X_true:=
    1        2.205809e+00
    2       -4.001825e+00
    3        1.082970e+00
    4        7.847602e-01
    5        1.852673e+00
    6       -4.666547e+00
    7        4.491051e-01
    8       -1.149282e+00
    9       -1.304826e+00
   10        4.712764e-01
   11        5.142228e+00
   12        1.451272e-03
   13        1.872556e+00
   14       -2.474873e-01
   15       -1.192576e+00
   16        1.879540e+00
   17       -1.965816e+00
   18       -9.228605e-01
   19       -1.464564e-01
   20        2.611822e+00
   21       -2.257332e+00
   22        1.421029e-02
   23       -1.512126e-01
   24       -7.560536e-01
   25       -2.511001e-01
   26       -1.157960e+00
   27        2.227352e+00
   28       -5.368733e-01
   29        2.465326e+00
   30       -8.870460e-01
   31        4.587424e-01
   32       -6.624932e-01
   33       -5.210843e-01
   34       -1.275010e-01
   35        9.167486e-02
   36        4.488512e-02
   37       -2.032789e-02
   38       -6.136540e-01
   39        3.460068e+00
   40        7.672227e-01
   41        2.372717e+00
   42        3.318302e+00
   43        9.038626e-01
   44       -7.331958e-01
   45       -2.097694e+00
   46       -1.601721e+00
   47        9.522358e-01
   48       -1.472138e+00
   49       -6.159916e-01
   50        2.670121e+00
   51        1.887110e+00
   52        1.192447e+00
   53       -3.549650e+00
   54        4.913416e-01
   55        1.628421e+00
   56       -6.248369e-01
   57        1.918967e+00
   58       -1.608000e+00
   59       -3.924975e+00
   60       -3.934837e+00
   61        3.525443e+00
   62        2.867392e+00
   63       -2.066959e+00
   64       -8.844417e-01
   65       -4.211617e+00
   66       -1.093274e+00
   67       -7.946953e-01
   68       -1.066631e+00
   69        1.790081e+00
   70        3.285040e+00
   71       -1.718987e+00
   72       -2.071915e+00
   73       -2.656702e+00
   74        4.343541e-01
   75        1.705794e+00
   76       -4.117284e+00
   77        1.491129e+00
   78        7.556075e-01
   79       -2.519815e+00
   80        7.996567e-01
   81       -1.949871e+00
   82       -6.842877e+00
   83       -1.387316e+00
   84       -3.692890e-01
   85       -1.600268e+00
   86       -1.118449e+00
   87        2.860809e+00
   88       -5.514658e-01
   89       -3.862404e+00
   90        9.467699e-01
   91       -4.706306e+00
   92       -8.924315e-01
   93       -2.358665e+00
   94        2.217747e+00
   95       -6.058389e+00
   96       -5.991773e-02
   97       -3.117340e+00
   98        4.103181e-01
   99       -1.620059e+00
  100        3.009733e+00
;
param X:=
    1        2.205809e+00
    2       -4.001825e+00
    3        1.082970e+00
    4        7.847602e-01
    5        1.852673e+00
    6       -4.666547e+00
    7        4.491051e-01
    8       -1.149282e+00
    9       -1.304826e+00
   10        4.712764e-01
   11        5.142228e+00
   12        1.451272e-03
   13        1.872556e+00
   14        5.019475e-01
   15       -1.192576e+00
   16        1.879540e+00
   17       -9.150979e-03
   18        1.348064e+00
   19       -1.138167e+00
   20        2.611822e+00
   21       -2.257332e+00
   22       -3.188672e-01
   23       -1.512126e-01
   24       -7.560536e-01
   25       -2.511001e-01
   26       -1.157960e+00
   27        2.227352e+00
   28       -5.368733e-01
   29        2.465326e+00
   30       -8.870460e-01
   31        4.587424e-01
   32        4.496384e-01
   33       -5.210843e-01
   34       -1.275010e-01
   35        9.167486e-02
   36        4.488512e-02
   37       -2.032789e-02
   38       -1.022476e-02
   39        3.460068e+00
   40        1.522617e-01
   41        2.372717e+00
   42        3.318302e+00
   43        9.038626e-01
   44       -7.331958e-01
   45       -2.097694e+00
   46       -1.601721e+00
   47        9.522358e-01
   48       -1.472138e+00
   49       -6.159916e-01
   50        2.670121e+00
   51        1.388529e+00
   52        1.612461e-01
   53       -3.549650e+00
   54        4.913416e-01
   55       -3.443404e-01
   56       -6.248369e-01
   57        1.918967e+00
   58       -1.608000e+00
   59        7.504926e-01
   60       -3.934837e+00
   61        3.525443e+00
   62        2.867392e+00
   63       -2.066959e+00
   64       -8.844417e-01
   65       -4.211617e+00
   66       -1.074035e+00
   67       -7.946953e-01
   68       -3.996930e-01
   69        1.790081e+00
   70        3.285040e+00
   71       -1.718987e+00
   72       -2.071915e+00
   73       -2.656702e+00
   74        4.343541e-01
   75        1.705794e+00
   76       -4.117284e+00
   77        1.491129e+00
   78        7.556075e-01
   79       -2.519815e+00
   80        7.996567e-01
   81       -1.949871e+00
   82        6.979361e-01
   83       -1.387316e+00
   84       -3.692890e-01
   85       -1.600268e+00
   86       -1.118449e+00
   87        2.860809e+00
   88       -5.514658e-01
   89       -1.810914e+00
   90       -1.343920e+00
   91       -9.380069e-01
   92       -5.329737e-01
   93       -2.358665e+00
   94        2.217747e+00
   95       -6.058389e+00
   96       -5.991773e-02
   97       -3.117340e+00
   98        4.103181e-01
   99       -6.243497e-02
  100        3.009733e+00
;
param outliervec:=
    1    0
    2    0
    3    0
    4    0
    5    0
    6    0
    7    0
    8    0
    9    0
   10    0
   11    0
   12    0
   13    0
   14    1
   15    0
   16    0
   17    1
   18    1
   19    1
   20    0
   21    0
   22    1
   23    0
   24    0
   25    0
   26    0
   27    0
   28    0
   29    0
   30    0
   31    0
   32    1
   33    0
   34    0
   35    0
   36    0
   37    0
   38    1
   39    0
   40    1
   41    0
   42    0
   43    0
   44    0
   45    0
   46    0
   47    0
   48    0
   49    0
   50    0
   51    1
   52    1
   53    0
   54    0
   55    1
   56    0
   57    0
   58    0
   59    1
   60    0
   61    0
   62    0
   63    0
   64    0
   65    0
   66    1
   67    0
   68    1
   69    0
   70    0
   71    0
   72    0
   73    0
   74    0
   75    0
   76    0
   77    0
   78    0
   79    0
   80    0
   81    0
   82    1
   83    0
   84    0
   85    0
   86    0
   87    0
   88    0
   89    1
   90    1
   91    1
   92    1
   93    0
   94    0
   95    0
   96    0
   97    0
   98    0
   99    1
  100    0
;